78
871
1126
1809
1496
1548
1001
821
1441
404
1421
313
1230
1570
1074
1113
1675
1208
1183
1245
86
1567
1587
1820
2029
1440
168
233
2005
1607
1229
95
772
1698
1500
1274
1245
1377
594
1417
99
991
1161
1597
2025
1645
1952
1377
297
1211
